60
1 0 28
2 0 19
2 1 17
3 0 38
3 1 9
3 2 20
4 0 16
4 1 14
4 2 8
4 3 37
5 0 1
5 1 24
5 2 34
5 3 37
5 4 13
6 0 6
6 1 19
6 2 9
6 3 14
6 4 28
6 5 32
7 0 40
7 1 10
7 2 37
7 3 18
7 4 11
7 5 29
7 6 25
8 0 21
8 1 37
8 2 9
8 3 20
8 4 28
8 5 12
8 6 17
8 7 24
9 0 35
9 1 21
9 2 31
9 3 21
9 4 26
9 5 7
9 6 11
9 7 26
9 8 24
10 0 27
10 1 26
10 2 5
10 3 1
10 4 14
10 5 16
10 6 23
10 7 18
10 8 19
10 9 36
11 0 5
11 1 12
11 2 35
11 3 3
11 4 37
11 5 15
11 6 27
11 7 17
11 8 1
11 9 5
11 10 1
12 0 26
12 1 37
12 2 37
12 3 39
12 4 30
12 5 27
12 6 24
12 7 40
12 8 33
12 9 6
12 10 4
12 11 34
13 0 19
13 1 29
13 2 1
13 3 5
13 4 35
13 5 24
13 6 18
13 7 35
13 8 31
13 9 24
13 10 5
13 11 10
13 12 4
14 0 5
14 1 7
14 2 27
14 3 26
14 4 16
14 5 28
14 6 25
14 7 16
14 8 18
14 9 37
14 10 19
14 11 9
14 12 14
14 13 2
15 0 1
15 1 2
15 2 27
15 3 20
15 4 6
15 5 32
15 6 4
15 7 26
15 8 8
15 9 20
15 10 38
15 11 1
15 12 4
15 13 35
15 14 20
16 0 21
16 1 26
16 2 20
16 3 1
16 4 10
16 5 11
16 6 3
16 7 16
16 8 1
16 9 36
16 10 5
16 11 35
16 12 16
16 13 11
16 14 39
16 15 31
17 0 9
17 1 28
17 2 8
17 3 6
17 4 31
17 5 26
17 6 26
17 7 40
17 8 31
17 9 6
17 10 28
17 11 25
17 12 13
17 13 38
17 14 20
17 15 18
17 16 13
18 0 19
18 1 14
18 2 25
18 3 31
18 4 14
18 5 17
18 6 40
18 7 11
18 8 34
18 9 15
18 10 17
18 11 22
18 12 35
18 13 23
18 14 7
18 15 20
18 16 36
18 17 15
19 0 20
19 1 28
19 2 4
19 3 8
19 4 1
19 5 38
19 6 40
19 7 14
19 8 37
19 9 10
19 10 24
19 11 9
19 12 30
19 13 17
19 14 24
19 15 39
19 16 21
19 17 22
19 18 28
20 0 39
20 1 35
20 2 13
20 3 6
20 4 26
20 5 7
20 6 15
20 7 10
20 8 14
20 9 13
20 10 13
20 11 6
20 12 14
20 13 32
20 14 28
20 15 20
20 16 21
20 17 7
20 18 10
20 19 24
21 0 35
21 1 27
21 2 11
21 3 39
21 4 34
21 5 36
21 6 33
21 7 31
21 8 33
21 9 12
21 10 4
21 11 20
21 12 13
21 13 25
21 14 18
21 15 18
21 16 16
21 17 26
21 18 17
21 19 13
21 20 10
22 0 34
22 1 4
22 2 4
22 3 21
22 4 38
22 5 30
22 6 13
22 7 22
22 8 5
22 9 8
22 10 2
22 11 36
22 12 31
22 13 20
22 14 6
22 15 10
22 16 1
22 17 13
22 18 9
22 19 19
22 20 34
22 21 16
23 0 28
23 1 19
23 2 15
23 3 14
23 4 33
23 5 33
23 6 40
23 7 30
23 8 18
23 9 31
23 10 28
23 11 5
23 12 40
23 13 34
23 14 33
23 15 16
23 16 1
23 17 40
23 18 28
23 19 25
23 20 2
23 21 17
23 22 24
24 0 19
24 1 30
24 2 9
24 3 9
24 4 26
24 5 30
24 6 19
24 7 39
24 8 38
24 9 14
24 10 22
24 11 3
24 12 1
24 13 9
24 14 34
24 15 24
24 16 35
24 17 26
24 18 34
24 19 19
24 20 19
24 21 39
24 22 27
24 23 34
25 0 21
25 1 18
25 2 8
25 3 14
25 4 27
25 5 15
25 6 22
25 7 14
25 8 4
25 9 17
25 10 22
25 11 39
25 12 8
25 13 17
25 14 9
25 15 23
25 16 21
25 17 7
25 18 36
25 19 36
25 20 29
25 21 34
25 22 40
25 23 15
25 24 24
26 0 8
26 1 30
26 2 37
26 3 36
26 4 20
26 5 28
26 6 15
26 7 12
26 8 7
26 9 5
26 10 15
26 11 26
26 12 9
26 13 18
26 14 19
26 15 24
26 16 5
26 17 30
26 18 25
26 19 2
26 20 32
26 21 37
26 22 9
26 23 8
26 24 30
26 25 32
27 0 29
27 1 30
27 2 21
27 3 12
27 4 6
27 5 39
27 6 36
27 7 1
27 8 11
27 9 29
27 10 35
27 11 34
27 12 40
27 13 6
27 14 40
27 15 9
27 16 20
27 17 35
27 18 27
27 19 11
27 20 4
27 21 12
27 22 24
27 23 3
27 24 27
27 25 33
27 26 17
28 0 20
28 1 20
28 2 7
28 3 6
28 4 21
28 5 18
28 6 18
28 7 7
28 8 10
28 9 7
28 10 6
28 11 23
28 12 14
28 13 26
28 14 33
28 15 20
28 16 10
28 17 4
28 18 22
28 19 11
28 20 11
28 21 8
28 22 28
28 23 2
28 24 2
28 25 16
28 26 28
28 27 33
29 0 16
29 1 11
29 2 23
29 3 7
29 4 17
29 5 15
29 6 31
29 7 6
29 8 7
29 9 19
29 10 5
29 11 4
29 12 25
29 13 18
29 14 16
29 15 18
29 16 19
29 17 23
29 18 18
29 19 13
29 20 1
29 21 5
29 22 3
29 23 16
29 24 15
29 25 6
29 26 13
29 27 14
29 28 22
30 0 3
30 1 9
30 2 15
30 3 5
30 4 22
30 5 28
30 6 29
30 7 30
30 8 26
30 9 8
30 10 32
30 11 24
30 12 2
30 13 37
30 14 24
30 15 20
30 16 5
30 17 34
30 18 19
30 19 7
30 20 10
30 21 5
30 22 13
30 23 11
30 24 5
30 25 7
30 26 3
30 27 35
30 28 22
30 29 32
31 0 25
31 1 12
31 2 25
31 3 11
31 4 29
31 5 1
31 6 6
31 7 36
31 8 36
31 9 35
31 10 16
31 11 24
31 12 27
31 13 12
31 14 30
31 15 26
31 16 6
31 17 40
31 18 40
31 19 23
31 20 34
31 21 2
31 22 39
31 23 28
31 24 33
31 25 1
31 26 1
31 27 4
31 28 36
31 29 7
31 30 26
32 0 30
32 1 18
32 2 14
32 3 36
32 4 40
32 5 36
32 6 12
32 7 19
32 8 2
32 9 7
32 10 23
32 11 13
32 12 37
32 13 16
32 14 13
32 15 32
32 16 35
32 17 38
32 18 15
32 19 33
32 20 12
32 21 17
32 22 20
32 23 27
32 24 1
32 25 39
32 26 39
32 27 3
32 28 37
32 29 26
32 30 28
32 31 2
33 0 21
33 1 11
33 2 13
33 3 17
33 4 11
33 5 25
33 6 11
33 7 9
33 8 2
33 9 36
33 10 33
33 11 4
33 12 30
33 13 1
33 14 9
33 15 22
33 16 24
33 17 12
33 18 33
33 19 29
33 20 21
33 21 39
33 22 25
33 23 7
33 24 2
33 25 1
33 26 24
33 27 13
33 28 12
33 29 29
33 30 33
33 31 6
33 32 37
34 0 32
34 1 9
34 2 33
34 3 24
34 4 36
34 5 22
34 6 29
34 7 34
34 8 36
34 9 29
34 10 38
34 11 12
34 12 15
34 13 34
34 14 33
34 15 16
34 16 39
34 17 14
34 18 27
34 19 11
34 20 32
34 21 5
34 22 25
34 23 27
34 24 37
34 25 36
34 26 39
34 27 17
34 28 21
34 29 27
34 30 22
34 31 6
34 32 19
34 33 13
35 0 9
35 1 1
35 2 13
35 3 26
35 4 15
35 5 9
35 6 32
35 7 18
35 8 37
35 9 11
35 10 22
35 11 17
35 12 14
35 13 5
35 14 25
35 15 30
35 16 33
35 17 1
35 18 37
35 19 7
35 20 40
35 21 24
35 22 22
35 23 15
35 24 31
35 25 39
35 26 35
35 27 8
35 28 21
35 29 30
35 30 34
35 31 7
35 32 28
35 33 1
35 34 22
36 0 6
36 1 40
36 2 32
36 3 17
36 4 4
36 5 12
36 6 31
36 7 11
36 8 12
36 9 10
36 10 39
36 11 12
36 12 22
36 13 38
36 14 28
36 15 28
36 16 17
36 17 16
36 18 12
36 19 11
36 20 39
36 21 17
36 22 1
36 23 20
36 24 36
36 25 12
36 26 20
36 27 38
36 28 17
36 29 23
36 30 14
36 31 27
36 32 19
36 33 13
36 34 35
36 35 6
37 0 25
37 1 2
37 2 11
37 3 11
37 4 36
37 5 10
37 6 11
37 7 27
37 8 32
37 9 35
37 10 20
37 11 2
37 12 32
37 13 21
37 14 35
37 15 7
37 16 36
37 17 40
37 18 34
37 19 12
37 20 36
37 21 22
37 22 11
37 23 30
37 24 31
37 25 39
37 26 3
37 27 23
37 28 30
37 29 14
37 30 15
37 31 19
37 32 29
37 33 10
37 34 16
37 35 30
37 36 28
38 0 11
38 1 18
38 2 23
38 3 1
38 4 32
38 5 30
38 6 40
38 7 17
38 8 40
38 9 40
38 10 26
38 11 23
38 12 16
38 13 38
38 14 35
38 15 30
38 16 31
38 17 40
38 18 23
38 19 33
38 20 3
38 21 16
38 22 18
38 23 35
38 24 31
38 25 29
38 26 11
38 27 32
38 28 17
38 29 38
38 30 32
38 31 2
38 32 31
38 33 37
38 34 15
38 35 6
38 36 32
38 37 40
39 0 39
39 1 24
39 2 36
39 3 35
39 4 28
39 5 23
39 6 26
39 7 35
39 8 32
39 9 12
39 10 27
39 11 24
39 12 16
39 13 4
39 14 27
39 15 24
39 16 6
39 17 10
39 18 14
39 19 30
39 20 9
39 21 32
39 22 39
39 23 29
39 24 26
39 25 5
39 26 5
39 27 40
39 28 15
39 29 18
39 30 7
39 31 29
39 32 12
39 33 26
39 34 2
39 35 40
39 36 13
39 37 19
39 38 16
40 0 7
40 1 9
40 2 30
40 3 28
40 4 31
40 5 16
40 6 31
40 7 18
40 8 34
40 9 22
40 10 34
40 11 13
40 12 27
40 13 11
40 14 5
40 15 26
40 16 21
40 17 14
40 18 31
40 19 3
40 20 33
40 21 7
40 22 14
40 23 34
40 24 13
40 25 21
40 26 33
40 27 20
40 28 8
40 29 40
40 30 30
40 31 11
40 32 12
40 33 3
40 34 16
40 35 9
40 36 40
40 37 12
40 38 30
40 39 18
41 0 12
41 1 1
41 2 39
41 3 35
41 4 35
41 5 2
41 6 25
41 7 34
41 8 36
41 9 36
41 10 22
41 11 3
41 12 8
41 13 6
41 14 15
41 15 35
41 16 3
41 17 38
41 18 10
41 19 35
41 20 17
41 21 1
41 22 31
41 23 15
41 24 20
41 25 23
41 26 26
41 27 6
41 28 18
41 29 29
41 30 18
41 31 20
41 32 30
41 33 31
41 34 10
41 35 18
41 36 36
41 37 6
41 38 15
41 39 5
41 40 10
42 0 34
42 1 17
42 2 31
42 3 24
42 4 35
42 5 5
42 6 27
42 7 37
42 8 35
42 9 31
42 10 33
42 11 32
42 12 40
42 13 25
42 14 21
42 15 29
42 16 26
42 17 37
42 18 9
42 19 34
42 20 29
42 21 33
42 22 21
42 23 32
42 24 15
42 25 20
42 26 11
42 27 16
42 28 28
42 29 27
42 30 20
42 31 24
42 32 23
42 33 36
42 34 16
42 35 39
42 36 16
42 37 2
42 38 24
42 39 20
42 40 4
42 41 38
43 0 17
43 1 16
43 2 6
43 3 1
43 4 32
43 5 22
43 6 13
43 7 18
43 8 19
43 9 15
43 10 1
43 11 6
43 12 5
43 13 23
43 14 39
43 15 28
43 16 24
43 17 34
43 18 26
43 19 38
43 20 37
43 21 20
43 22 31
43 23 31
43 24 4
43 25 29
43 26 32
43 27 21
43 28 10
43 29 37
43 30 15
43 31 35
43 32 22
43 33 9
43 34 30
43 35 12
43 36 36
43 37 1
43 38 1
43 39 13
43 40 23
43 41 25
43 42 23
44 0 40
44 1 30
44 2 29
44 3 37
44 4 32
44 5 11
44 6 29
44 7 10
44 8 24
44 9 28
44 10 1
44 11 33
44 12 4
44 13 18
44 14 24
44 15 19
44 16 22
44 17 35
44 18 33
44 19 25
44 20 4
44 21 12
44 22 2
44 23 23
44 24 8
44 25 23
44 26 27
44 27 8
44 28 12
44 29 11
44 30 17
44 31 36
44 32 5
44 33 14
44 34 11
44 35 40
44 36 29
44 37 2
44 38 7
44 39 15
44 40 38
44 41 34
44 42 25
44 43 10
45 0 4
45 1 30
45 2 23
45 3 27
45 4 34
45 5 34
45 6 5
45 7 25
45 8 23
45 9 19
45 10 17
45 11 12
45 12 33
45 13 38
45 14 14
45 15 20
45 16 30
45 17 35
45 18 36
45 19 20
45 20 16
45 21 23
45 22 22
45 23 37
45 24 6
45 25 2
45 26 1
45 27 2
45 28 5
45 29 22
45 30 40
45 31 2
45 32 1
45 33 23
45 34 30
45 35 30
45 36 27
45 37 1
45 38 2
45 39 7
45 40 22
45 41 34
45 42 20
45 43 33
45 44 24
46 0 3
46 1 5
46 2 14
46 3 24
46 4 20
46 5 6
46 6 10
46 7 28
46 8 11
46 9 5
46 10 29
46 11 24
46 12 3
46 13 29
46 14 30
46 15 1
46 16 19
46 17 2
46 18 4
46 19 4
46 20 40
46 21 13
46 22 27
46 23 29
46 24 7
46 25 40
46 26 23
46 27 17
46 28 26
46 29 38
46 30 32
46 31 3
46 32 6
46 33 8
46 34 11
46 35 4
46 36 23
46 37 16
46 38 33
46 39 30
46 40 39
46 41 28
46 42 4
46 43 6
46 44 6
46 45 7
47 0 33
47 1 7
47 2 11
47 3 33
47 4 26
47 5 18
47 6 8
47 7 17
47 8 17
47 9 2
47 10 12
47 11 16
47 12 4
47 13 31
47 14 39
47 15 34
47 16 37
47 17 38
47 18 6
47 19 35
47 20 13
47 21 36
47 22 11
47 23 28
47 24 4
47 25 6
47 26 6
47 27 38
47 28 38
47 29 20
47 30 32
47 31 27
47 32 39
47 33 24
47 34 40
47 35 12
47 36 27
47 37 38
47 38 27
47 39 3
47 40 17
47 41 38
47 42 9
47 43 28
47 44 12
47 45 4
47 46 8
48 0 28
48 1 19
48 2 34
48 3 40
48 4 14
48 5 18
48 6 35
48 7 35
48 8 38
48 9 22
48 10 8
48 11 26
48 12 22
48 13 27
48 14 30
48 15 23
48 16 32
48 17 23
48 18 33
48 19 17
48 20 16
48 21 9
48 22 7
48 23 30
48 24 2
48 25 32
48 26 39
48 27 30
48 28 9
48 29 22
48 30 35
48 31 13
48 32 8
48 33 21
48 34 15
48 35 6
48 36 30
48 37 40
48 38 1
48 39 6
48 40 32
48 41 26
48 42 33
48 43 9
48 44 37
48 45 24
48 46 17
48 47 12
49 0 15
49 1 5
49 2 26
49 3 19
49 4 35
49 5 40
49 6 11
49 7 2
49 8 31
49 9 39
49 10 28
49 11 14
49 12 3
49 13 10
49 14 13
49 15 18
49 16 8
49 17 23
49 18 34
49 19 37
49 20 35
49 21 40
49 22 16
49 23 32
49 24 19
49 25 14
49 26 20
49 27 31
49 28 14
49 29 16
49 30 10
49 31 27
49 32 11
49 33 25
49 34 9
49 35 27
49 36 7
49 37 21
49 38 37
49 39 29
49 40 13
49 41 38
49 42 26
49 43 12
49 44 3
49 45 17
49 46 19
49 47 5
49 48 24
50 0 31
50 1 16
50 2 36
50 3 13
50 4 26
50 5 40
50 6 35
50 7 33
50 8 15
50 9 4
50 10 37
50 11 27
50 12 20
50 13 7
50 14 21
50 15 17
50 16 1
50 17 33
50 18 22
50 19 15
50 20 30
50 21 8
50 22 1
50 23 8
50 24 33
50 25 13
50 26 11
50 27 25
50 28 2
50 29 36
50 30 34
50 31 14
50 32 19
50 33 27
50 34 14
50 35 7
50 36 29
50 37 26
50 38 5
50 39 2
50 40 27
50 41 35
50 42 9
50 43 14
50 44 20
50 45 9
50 46 11
50 47 28
50 48 24
50 49 31
51 0 39
51 1 4
51 2 15
51 3 17
51 4 25
51 5 15
51 6 2
51 7 38
51 8 28
51 9 26
51 10 16
51 11 31
51 12 14
51 13 7
51 14 19
51 15 37
51 16 26
51 17 1
51 18 38
51 19 40
51 20 19
51 21 31
51 22 34
51 23 13
51 24 30
51 25 10
51 26 22
51 27 17
51 28 14
51 29 29
51 30 15
51 31 16
51 32 27
51 33 18
51 34 9
51 35 9
51 36 1
51 37 2
51 38 38
51 39 20
51 40 3
51 41 21
51 42 24
51 43 28
51 44 3
51 45 25
51 46 23
51 47 31
51 48 26
51 49 36
51 50 16
52 0 13
52 1 16
52 2 33
52 3 23
52 4 4
52 5 16
52 6 26
52 7 30
52 8 26
52 9 23
52 10 36
52 11 20
52 12 37
52 13 21
52 14 31
52 15 29
52 16 11
52 17 40
52 18 27
52 19 3
52 20 21
52 21 21
52 22 36
52 23 35
52 24 25
52 25 22
52 26 37
52 27 37
52 28 11
52 29 6
52 30 3
52 31 38
52 32 19
52 33 13
52 34 9
52 35 36
52 36 36
52 37 13
52 38 5
52 39 24
52 40 25
52 41 24
52 42 12
52 43 27
52 44 14
52 45 1
52 46 31
52 47 12
52 48 15
52 49 39
52 50 33
52 51 28
53 0 6
53 1 5
53 2 26
53 3 2
53 4 30
53 5 35
53 6 38
53 7 15
53 8 23
53 9 9
53 10 3
53 11 25
53 12 32
53 13 40
53 14 3
53 15 33
53 16 18
53 17 14
53 18 14
53 19 16
53 20 32
53 21 9
53 22 20
53 23 23
53 24 13
53 25 27
53 26 10
53 27 29
53 28 5
53 29 17
53 30 3
53 31 2
53 32 34
53 33 12
53 34 34
53 35 39
53 36 16
53 37 1
53 38 38
53 39 1
53 40 5
53 41 26
53 42 19
53 43 2
53 44 1
53 45 1
53 46 17
53 47 21
53 48 11
53 49 13
53 50 7
53 51 23
53 52 6
54 0 37
54 1 21
54 2 9
54 3 9
54 4 18
54 5 4
54 6 22
54 7 4
54 8 14
54 9 37
54 10 37
54 11 20
54 12 8
54 13 22
54 14 34
54 15 2
54 16 11
54 17 29
54 18 17
54 19 14
54 20 15
54 21 38
54 22 34
54 23 7
54 24 4
54 25 9
54 26 37
54 27 29
54 28 26
54 29 16
54 30 8
54 31 10
54 32 8
54 33 31
54 34 18
54 35 31
54 36 2
54 37 7
54 38 23
54 39 22
54 40 22
54 41 31
54 42 36
54 43 6
54 44 11
54 45 31
54 46 27
54 47 3
54 48 27
54 49 11
54 50 8
54 51 25
54 52 34
54 53 2
55 0 3
55 1 20
55 2 20
55 3 7
55 4 37
55 5 34
55 6 23
55 7 30
55 8 13
55 9 4
55 10 39
55 11 38
55 12 8
55 13 10
55 14 22
55 15 9
55 16 7
55 17 14
55 18 7
55 19 26
55 20 36
55 21 40
55 22 17
55 23 16
55 24 26
55 25 31
55 26 14
55 27 35
55 28 13
55 29 9
55 30 18
55 31 6
55 32 20
55 33 13
55 34 23
55 35 30
55 36 1
55 37 10
55 38 24
55 39 30
55 40 16
55 41 40
55 42 39
55 43 33
55 44 1
55 45 8
55 46 21
55 47 30
55 48 28
55 49 1
55 50 1
55 51 13
55 52 20
55 53 15
55 54 25
56 0 4
56 1 24
56 2 8
56 3 2
56 4 36
56 5 21
56 6 9
56 7 36
56 8 15
56 9 7
56 10 39
56 11 39
56 12 37
56 13 20
56 14 4
56 15 38
56 16 25
56 17 30
56 18 20
56 19 10
56 20 15
56 21 19
56 22 14
56 23 26
56 24 40
56 25 37
56 26 19
56 27 40
56 28 4
56 29 14
56 30 17
56 31 9
56 32 6
56 33 15
56 34 6
56 35 16
56 36 32
56 37 30
56 38 13
56 39 28
56 40 22
56 41 30
56 42 29
56 43 7
56 44 11
56 45 39
56 46 36
56 47 38
56 48 9
56 49 32
56 50 12
56 51 17
56 52 18
56 53 21
56 54 26
56 55 4
57 0 29
57 1 21
57 2 2
57 3 21
57 4 28
57 5 25
57 6 11
57 7 14
57 8 17
57 9 8
57 10 37
57 11 17
57 12 36
57 13 23
57 14 34
57 15 19
57 16 37
57 17 37
57 18 27
57 19 35
57 20 29
57 21 31
57 22 20
57 23 18
57 24 38
57 25 30
57 26 5
57 27 8
57 28 34
57 29 35
57 30 40
57 31 33
57 32 12
57 33 12
57 34 14
57 35 36
57 36 10
57 37 16
57 38 31
57 39 16
57 40 13
57 41 8
57 42 18
57 43 35
57 44 15
57 45 20
57 46 23
57 47 17
57 48 13
57 49 31
57 50 25
57 51 16
57 52 22
57 53 13
57 54 40
57 55 7
57 56 24
58 0 27
58 1 30
58 2 31
58 3 7
58 4 20
58 5 14
58 6 4
58 7 17
58 8 29
58 9 4
58 10 32
58 11 7
58 12 2
58 13 17
58 14 13
58 15 22
58 16 26
58 17 40
58 18 27
58 19 9
58 20 20
58 21 30
58 22 28
58 23 35
58 24 11
58 25 2
58 26 1
58 27 10
58 28 23
58 29 23
58 30 7
58 31 13
58 32 8
58 33 27
58 34 7
58 35 27
58 36 39
58 37 16
58 38 33
58 39 4
58 40 12
58 41 8
58 42 21
58 43 40
58 44 27
58 45 13
58 46 5
58 47 7
58 48 22
58 49 5
58 50 14
58 51 40
58 52 13
58 53 34
58 54 33
58 55 40
58 56 23
58 57 38
59 0 21
59 1 17
59 2 14
59 3 18
59 4 10
59 5 23
59 6 31
59 7 12
59 8 29
59 9 11
59 10 34
59 11 27
59 12 1
59 13 26
59 14 1
59 15 22
59 16 24
59 17 16
59 18 19
59 19 3
59 20 9
59 21 17
59 22 36
59 23 27
59 24 15
59 25 36
59 26 1
59 27 25
59 28 6
59 29 11
59 30 21
59 31 31
59 32 18
59 33 31
59 34 33
59 35 32
59 36 13
59 37 33
59 38 3
59 39 24
59 40 17
59 41 15
59 42 6
59 43 13
59 44 6
59 45 16
59 46 27
59 47 34
59 48 1
59 49 1
59 50 8
59 51 26
59 52 35
59 53 26
59 54 6
59 55 24
59 56 25
59 57 21
59 58 7
